language ESSENCE 2.0

letting pain be
tuple ([ ( 
       2,
       (1, 9, 3, 4),
       (5, 6, 7, 8),
       ((10, 11, (64, 54), 31), 12),
       14
       ),( 
       2,
       (1, 9, 3, 4),
       (5, 6, 7, 8),
       ((10, 11, (64, 54), 31), 12),
       14
       ),( 
       2,
       (1, 9, 3, 4),
       (5, 6, 7, 8),
       ((10, 11, (64, 54), 31), 12),
       14       
) ])